experiments/sat_smt/run/sat-r+/results/rebecca.res
solved=true
solvingTime=1.6193058490753173828125
nActions=6