experiments/sat_smt/run/sat-r+/results/rebecca.out
Timesteps: 1
s UNSATISFIABLE
real 0.13
user 0.01
sys 0.00
Timesteps: 2
s UNSATISFIABLE
real 0.11
user 0.02
sys 0.00
Timesteps: 3
s UNSATISFIABLE
real 0.14
user 0.05
sys 0.00
Timesteps: 4
s UNSATISFIABLE
real 0.15
user 0.08
sys 0.01
Timesteps: 5
s UNSATISFIABLE
real 0.31
user 0.22
sys 0.00
Timesteps: 6
s SATISFIABLE
real 0.49
user 0.37
sys 0.01
